784 1568
1 2 4
1 29 2
2 3 2
2 30 1
3 4 4
3 31 5
4 5 1
4 32 3
5 6 5
5 33 2
6 7 1
6 34 4
7 8 2
7 35 1
8 9 5
8 36 5
9 10 5
9 37 1
10 11 5
10 38 5
11 12 5
11 39 5
12 13 3
12 40 3
13 14 2
13 41 3
14 15 5
14 42 2
15 16 2
15 43 2
16 17 2
16 44 2
17 18 5
17 45 5
18 19 4
18 46 4
19 20 2
19 47 3
20 21 3
20 48 1
21 22 1
21 49 3
22 23 1
22 50 2
23 24 4
23 51 1
24 25 3
24 52 3
25 26 2
25 53 5
26 27 2
26 54 1
27 28 5
27 55 4
28 56 5
29 30 3
29 57 4
30 31 4
30 58 5
31 32 4
31 59 5
32 33 2
32 60 5
33 34 4
33 61 3
34 35 4
34 62 3
35 36 3
35 63 1
36 37 3
36 64 4
37 38 2
37 65 5
38 39 5
38 66 3
39 40 1
39 67 4
40 41 1
40 68 5
41 42 5
41 69 2
42 43 3
42 70 3
43 44 2
43 71 5
44 45 5
44 72 5
45 46 2
45 73 4
46 47 3
46 74 2
47 48 3
47 75 3
48 49 4
48 76 1
49 50 3
49 77 5
50 51 5
50 78 4
51 52 2
51 79 4
52 53 2
52 80 1
53 54 4
53 81 4
54 55 3
54 82 3
55 56 5
55 83 5
56 84 3
57 58 1
57 85 4
58 59 2
58 86 3
59 60 3
59 87 5
60 61 5
60 88 1
61 62 1
61 89 2
62 63 3
62 90 5
63 64 1
63 91 1
64 65 1
64 92 1
65 66 2
65 93 2
66 67 4
66 94 2
67 68 1
67 95 5
68 69 5
68 96 4
69 70 5
69 97 3
70 71 2
70 98 3
71 72 2
71 99 5
72 73 5
72 100 3
73 74 5
73 101 4
74 75 3
74 102 5
75 76 5
75 103 3
76 77 5
76 104 2
77 78 2
77 105 1
78 79 4
78 106 1
79 80 5
79 107 4
80 81 1
80 108 1
81 82 2
81 109 4
82 83 3
82 110 1
83 84 3
83 111 2
84 112 4
85 86 4
85 113 1
86 87 2
86 114 1
87 88 5
87 115 5
88 89 4
88 116 2
89 90 5
89 117 1
90 91 3
90 118 4
91 92 2
91 119 3
92 93 1
92 120 3
93 94 2
93 121 4
94 95 4
94 122 2
95 96 4
95 123 3
96 97 5
96 124 2
97 98 2
97 125 5
98 99 5
98 126 3
99 100 2
99 127 5
100 101 4
100 128 5
101 102 1
101 129 1
102 103 1
102 130 1
103 104 5
103 131 2
104 105 3
104 132 2
105 106 5
105 133 2
106 107 2
106 134 1
107 108 5
107 135 2
108 109 4
108 136 4
109 110 2
109 137 5
110 111 5
110 138 5
111 112 5
111 139 1
112 140 1
113 114 3
113 141 2
114 115 2
114 142 3
115 116 1
115 143 2
116 117 2
116 144 1
117 118 1
117 145 4
118 119 1
118 146 4
119 120 3
119 147 4
120 121 4
120 148 5
121 122 1
121 149 5
122 123 1
122 150 3
123 124 4
123 151 4
124 125 4
124 152 5
125 126 2
125 153 3
126 127 1
126 154 2
127 128 4
127 155 5
128 129 5
128 156 3
129 130 5
129 157 1
130 131 4
130 158 1
131 132 2
131 159 5
132 133 5
132 160 1
133 134 5
133 161 4
134 135 4
134 162 2
135 136 2
135 163 1
136 137 5
136 164 3
137 138 2
137 165 5
138 139 3
138 166 5
139 140 3
139 167 3
140 168 4
141 142 4
141 169 1
142 143 1
142 170 3
143 144 2
143 171 1
144 145 5
144 172 4
145 146 4
145 173 3
146 147 1
146 174 1
147 148 1
147 175 3
148 149 5
148 176 3
149 150 3
149 177 5
150 151 4
150 178 1
151 152 5
151 179 1
152 153 2
152 180 4
153 154 4
153 181 2
154 155 2
154 182 4
155 156 5
155 183 5
156 157 1
156 184 2
157 158 2
157 185 5
158 159 5
158 186 5
159 160 3
159 187 5
160 161 3
160 188 1
161 162 1
161 189 5
162 163 5
162 190 5
163 164 4
163 191 3
164 165 1
164 192 4
165 166 3
165 193 4
166 167 2
166 194 2
167 168 3
167 195 1
168 196 4
169 170 5
169 197 3
170 171 4
170 198 1
171 172 2
171 199 2
172 173 1
172 200 4
173 174 4
173 201 4
174 175 2
174 202 4
175 176 3
175 203 2
176 177 4
176 204 3
177 178 2
177 205 1
178 179 4
178 206 2
179 180 3
179 207 3
180 181 4
180 208 1
181 182 5
181 209 3
182 183 2
182 210 5
183 184 2
183 211 3
184 185 5
184 212 2
185 186 5
185 213 3
186 187 1
186 214 2
187 188 1
187 215 4
188 189 5
188 216 1
189 190 2
189 217 3
190 191 4
190 218 1
191 192 4
191 219 5
192 193 1
192 220 4
193 194 5
193 221 5
194 195 2
194 222 3
195 196 3
195 223 1
196 224 3
197 198 2
197 225 2
198 199 3
198 226 2
199 200 2
199 227 5
200 201 1
200 228 3
201 202 3
201 229 2
202 203 2
202 230 1
203 204 3
203 231 3
204 205 4
204 232 4
205 206 2
205 233 5
206 207 2
206 234 4
207 208 5
207 235 4
208 209 2
208 236 4
209 210 1
209 237 5
210 211 3
210 238 3
211 212 2
211 239 5
212 213 2
212 240 2
213 214 2
213 241 1
214 215 4
214 242 5
215 216 2
215 243 3
216 217 3
216 244 2
217 218 3
217 245 4
218 219 2
218 246 2
219 220 4
219 247 2
220 221 1
220 248 4
221 222 4
221 249 5
222 223 1
222 250 2
223 224 5
223 251 1
224 252 2
225 226 2
225 253 4
226 227 1
226 254 3
227 228 3
227 255 4
228 229 3
228 256 3
229 230 5
229 257 3
230 231 4
230 258 1
231 232 3
231 259 2
232 233 3
232 260 4
233 234 2
233 261 1
234 235 5
234 262 4
235 236 2
235 263 4
236 237 5
236 264 5
237 238 3
237 265 5
238 239 5
238 266 3
239 240 5
239 267 2
240 241 3
240 268 4
241 242 5
241 269 1
242 243 1
242 270 1
243 244 5
243 271 1
244 245 2
244 272 4
245 246 5
245 273 2
246 247 4
246 274 4
247 248 1
247 275 1
248 249 4
248 276 1
249 250 3
249 277 4
250 251 4
250 278 2
251 252 2
251 279 5
252 280 3
253 254 3
253 281 5
254 255 4
254 282 3
255 256 1
255 283 2
256 257 1
256 284 3
257 258 4
257 285 3
258 259 1
258 286 3
259 260 5
259 287 4
260 261 5
260 288 4
261 262 4
261 289 5
262 263 5
262 290 1
263 264 5
263 291 3
264 265 2
264 292 4
265 266 4
265 293 1
266 267 1
266 294 5
267 268 3
267 295 2
268 269 3
268 296 4
269 270 4
269 297 2
270 271 4
270 298 3
271 272 5
271 299 3
272 273 3
272 300 1
273 274 1
273 301 3
274 275 2
274 302 1
275 276 3
275 303 2
276 277 1
276 304 4
277 278 2
277 305 1
278 279 4
278 306 1
279 280 2
279 307 1
280 308 3
281 282 3
281 309 2
282 283 5
282 310 5
283 284 5
283 311 1
284 285 5
284 312 2
285 286 5
285 313 3
286 287 4
286 314 2
287 288 5
287 315 5
288 289 2
288 316 1
289 290 5
289 317 2
290 291 3
290 318 4
291 292 4
291 319 3
292 293 3
292 320 1
293 294 4
293 321 3
294 295 2
294 322 2
295 296 1
295 323 3
296 297 1
296 324 3
297 298 1
297 325 5
298 299 3
298 326 3
299 300 3
299 327 4
300 301 5
300 328 3
301 302 2
301 329 1
302 303 5
302 330 2
303 304 1
303 331 2
304 305 3
304 332 2
305 306 5
305 333 4
306 307 2
306 334 2
307 308 1
307 335 1
308 336 2
309 310 4
309 337 5
310 311 4
310 338 3
311 312 3
311 339 4
312 313 2
312 340 5
313 314 5
313 341 5
314 315 4
314 342 1
315 316 4
315 343 5
316 317 3
316 344 2
317 318 2
317 345 5
318 319 3
318 346 3
319 320 5
319 347 4
320 321 2
320 348 3
321 322 4
321 349 4
322 323 4
322 350 5
323 324 5
323 351 3
324 325 4
324 352 5
325 326 5
325 353 4
326 327 2
326 354 1
327 328 1
327 355 1
328 329 5
328 356 1
329 330 1
329 357 2
330 331 5
330 358 5
331 332 1
331 359 4
332 333 4
332 360 3
333 334 4
333 361 3
334 335 1
334 362 1
335 336 1
335 363 5
336 364 4
337 338 3
337 365 4
338 339 3
338 366 1
339 340 5
339 367 2
340 341 2
340 368 2
341 342 2
341 369 5
342 343 3
342 370 2
343 344 3
343 371 3
344 345 3
344 372 4
345 346 4
345 373 1
346 347 5
346 374 4
347 348 3
347 375 5
348 349 5
348 376 3
349 350 1
349 377 4
350 351 4
350 378 2
351 352 4
351 379 3
352 353 5
352 380 5
353 354 1
353 381 4
354 355 2
354 382 3
355 356 4
355 383 5
356 357 2
356 384 2
357 358 2
357 385 3
358 359 5
358 386 1
359 360 5
359 387 4
360 361 5
360 388 5
361 362 5
361 389 4
362 363 3
362 390 1
363 364 2
363 391 1
364 392 4
365 366 5
365 393 3
366 367 3
366 394 3
367 368 4
367 395 5
368 369 1
368 396 2
369 370 3
369 397 5
370 371 5
370 398 2
371 372 2
371 399 4
372 373 3
372 400 3
373 374 4
373 401 1
374 375 3
374 402 1
375 376 4
375 403 4
376 377 1
376 404 5
377 378 5
377 405 3
378 379 2
378 406 1
379 380 3
379 407 2
380 381 3
380 408 1
381 382 2
381 409 3
382 383 2
382 410 2
383 384 5
383 411 1
384 385 5
384 412 3
385 386 1
385 413 4
386 387 5
386 414 4
387 388 1
387 415 1
388 389 5
388 416 3
389 390 4
389 417 4
390 391 5
390 418 3
391 392 3
391 419 4
392 420 3
393 394 3
393 421 1
394 395 3
394 422 4
395 396 4
395 423 5
396 397 2
396 424 3
397 398 4
397 425 4
398 399 4
398 426 2
399 400 1
399 427 1
400 401 1
400 428 4
401 402 3
401 429 5
402 403 3
402 430 2
403 404 4
403 431 5
404 405 1
404 432 1
405 406 2
405 433 4
406 407 5
406 434 4
407 408 2
407 435 4
408 409 1
408 436 4
409 410 2
409 437 1
410 411 4
410 438 4
411 412 5
411 439 5
412 413 4
412 440 5
413 414 5
413 441 2
414 415 5
414 442 4
415 416 5
415 443 4
416 417 4
416 444 4
417 418 4
417 445 5
418 419 4
418 446 5
419 420 3
419 447 2
420 448 3
421 422 4
421 449 5
422 423 3
422 450 4
423 424 2
423 451 2
424 425 4
424 452 2
425 426 3
425 453 3
426 427 2
426 454 5
427 428 5
427 455 3
428 429 3
428 456 1
429 430 3
429 457 4
430 431 2
430 458 1
431 432 3
431 459 4
432 433 1
432 460 5
433 434 2
433 461 3
434 435 3
434 462 5
435 436 4
435 463 4
436 437 1
436 464 5
437 438 4
437 465 3
438 439 5
438 466 1
439 440 2
439 467 1
440 441 4
440 468 2
441 442 2
441 469 1
442 443 4
442 470 4
443 444 5
443 471 3
444 445 4
444 472 2
445 446 5
445 473 4
446 447 3
446 474 2
447 448 3
447 475 1
448 476 1
449 450 2
449 477 3
450 451 4
450 478 3
451 452 3
451 479 1
452 453 4
452 480 1
453 454 4
453 481 3
454 455 3
454 482 4
455 456 3
455 483 4
456 457 1
456 484 5
457 458 2
457 485 1
458 459 2
458 486 2
459 460 2
459 487 4
460 461 3
460 488 3
461 462 4
461 489 3
462 463 2
462 490 4
463 464 3
463 491 2
464 465 1
464 492 1
465 466 2
465 493 1
466 467 2
466 494 3
467 468 4
467 495 1
468 469 2
468 496 2
469 470 5
469 497 2
470 471 3
470 498 2
471 472 4
471 499 4
472 473 4
472 500 1
473 474 4
473 501 5
474 475 1
474 502 5
475 476 3
475 503 3
476 504 4
477 478 4
477 505 2
478 479 2
478 506 3
479 480 1
479 507 2
480 481 3
480 508 5
481 482 5
481 509 4
482 483 5
482 510 3
483 484 4
483 511 3
484 485 5
484 512 1
485 486 3
485 513 2
486 487 3
486 514 5
487 488 1
487 515 4
488 489 5
488 516 5
489 490 2
489 517 4
490 491 4
490 518 5
491 492 4
491 519 5
492 493 3
492 520 1
493 494 5
493 521 5
494 495 5
494 522 5
495 496 1
495 523 1
496 497 2
496 524 1
497 498 5
497 525 5
498 499 3
498 526 1
499 500 3
499 527 4
500 501 3
500 528 3
501 502 4
501 529 5
502 503 4
502 530 1
503 504 4
503 531 5
504 532 3
505 506 5
505 533 4
506 507 1
506 534 3
507 508 1
507 535 3
508 509 2
508 536 1
509 510 1
509 537 3
510 511 5
510 538 5
511 512 2
511 539 2
512 513 2
512 540 3
513 514 4
513 541 5
514 515 3
514 542 4
515 516 1
515 543 1
516 517 1
516 544 2
517 518 5
517 545 1
518 519 2
518 546 4
519 520 5
519 547 5
520 521 3
520 548 3
521 522 4
521 549 2
522 523 1
522 550 5
523 524 5
523 551 5
524 525 4
524 552 4
525 526 4
525 553 5
526 527 4
526 554 4
527 528 2
527 555 3
528 529 2
528 556 5
529 530 3
529 557 4
530 531 1
530 558 3
531 532 4
531 559 2
532 560 1
533 534 2
533 561 3
534 535 3
534 562 5
535 536 3
535 563 4
536 537 3
536 564 2
537 538 4
537 565 3
538 539 1
538 566 2
539 540 3
539 567 3
540 541 2
540 568 3
541 542 4
541 569 2
542 543 5
542 570 4
543 544 2
543 571 3
544 545 5
544 572 1
545 546 1
545 573 4
546 547 2
546 574 5
547 548 5
547 575 1
548 549 2
548 576 5
549 550 2
549 577 2
550 551 4
550 578 3
551 552 4
551 579 1
552 553 1
552 580 4
553 554 4
553 581 4
554 555 2
554 582 3
555 556 1
555 583 4
556 557 3
556 584 1
557 558 4
557 585 1
558 559 5
558 586 5
559 560 5
559 587 4
560 588 1
561 562 5
561 589 1
562 563 5
562 590 4
563 564 3
563 591 4
564 565 1
564 592 4
565 566 3
565 593 2
566 567 5
566 594 3
567 568 3
567 595 3
568 569 3
568 596 3
569 570 3
569 597 4
570 571 1
570 598 1
571 572 1
571 599 5
572 573 3
572 600 5
573 574 5
573 601 2
574 575 4
574 602 4
575 576 3
575 603 3
576 577 5
576 604 1
577 578 5
577 605 4
578 579 2
578 606 3
579 580 2
579 607 4
580 581 2
580 608 3
581 582 2
581 609 1
582 583 3
582 610 3
583 584 4
583 611 5
584 585 5
584 612 1
585 586 5
585 613 3
586 587 4
586 614 4
587 588 1
587 615 5
588 616 3
589 590 2
589 617 4
590 591 2
590 618 5
591 592 3
591 619 4
592 593 2
592 620 4
593 594 3
593 621 5
594 595 3
594 622 5
595 596 2
595 623 5
596 597 2
596 624 4
597 598 1
597 625 3
598 599 1
598 626 2
599 600 1
599 627 2
600 601 1
600 628 4
601 602 1
601 629 4
602 603 2
602 630 3
603 604 1
603 631 3
604 605 4
604 632 3
605 606 5
605 633 5
606 607 2
606 634 1
607 608 5
607 635 2
608 609 5
608 636 1
609 610 5
609 637 2
610 611 1
610 638 5
611 612 5
611 639 1
612 613 2
612 640 1
613 614 4
613 641 3
614 615 1
614 642 2
615 616 3
615 643 4
616 644 5
617 618 1
617 645 2
618 619 5
618 646 3
619 620 1
619 647 1
620 621 4
620 648 5
621 622 3
621 649 4
622 623 5
622 650 1
623 624 5
623 651 2
624 625 2
624 652 5
625 626 4
625 653 5
626 627 2
626 654 2
627 628 2
627 655 2
628 629 4
628 656 5
629 630 4
629 657 3
630 631 4
630 658 3
631 632 1
631 659 5
632 633 3
632 660 5
633 634 2
633 661 4
634 635 1
634 662 4
635 636 2
635 663 3
636 637 5
636 664 3
637 638 3
637 665 2
638 639 4
638 666 4
639 640 5
639 667 4
640 641 2
640 668 4
641 642 1
641 669 1
642 643 4
642 670 5
643 644 1
643 671 1
644 672 4
645 646 1
645 673 1
646 647 3
646 674 1
647 648 2
647 675 3
648 649 5
648 676 4
649 650 1
649 677 1
650 651 5
650 678 2
651 652 1
651 679 1
652 653 3
652 680 1
653 654 5
653 681 2
654 655 5
654 682 5
655 656 2
655 683 5
656 657 4
656 684 2
657 658 4
657 685 5
658 659 5
658 686 2
659 660 4
659 687 4
660 661 2
660 688 4
661 662 1
661 689 1
662 663 4
662 690 1
663 664 4
663 691 2
664 665 5
664 692 5
665 666 4
665 693 5
666 667 1
666 694 5
667 668 5
667 695 1
668 669 1
668 696 4
669 670 2
669 697 2
670 671 3
670 698 3
671 672 4
671 699 1
672 700 5
673 674 4
673 701 3
674 675 4
674 702 3
675 676 2
675 703 3
676 677 2
676 704 1
677 678 1
677 705 3
678 679 1
678 706 3
679 680 1
679 707 3
680 681 4
680 708 4
681 682 1
681 709 5
682 683 3
682 710 4
683 684 5
683 711 2
684 685 4
684 712 2
685 686 3
685 713 1
686 687 2
686 714 5
687 688 3
687 715 4
688 689 5
688 716 1
689 690 2
689 717 4
690 691 3
690 718 5
691 692 1
691 719 2
692 693 4
692 720 3
693 694 3
693 721 4
694 695 2
694 722 3
695 696 4
695 723 2
696 697 3
696 724 1
697 698 3
697 725 4
698 699 3
698 726 1
699 700 3
699 727 5
700 728 3
701 702 5
701 729 1
702 703 5
702 730 3
703 704 3
703 731 2
704 705 5
704 732 5
705 706 2
705 733 1
706 707 2
706 734 3
707 708 4
707 735 3
708 709 2
708 736 4
709 710 1
709 737 3
710 711 3
710 738 4
711 712 5
711 739 5
712 713 1
712 740 5
713 714 1
713 741 5
714 715 1
714 742 4
715 716 2
715 743 4
716 717 4
716 744 4
717 718 4
717 745 3
718 719 5
718 746 5
719 720 1
719 747 1
720 721 1
720 748 4
721 722 4
721 749 1
722 723 3
722 750 2
723 724 2
723 751 2
724 725 5
724 752 2
725 726 5
725 753 2
726 727 5
726 754 5
727 728 5
727 755 1
728 756 5
729 730 4
729 757 4
730 731 5
730 758 3
731 732 5
731 759 5
732 733 5
732 760 2
733 734 2
733 761 3
734 735 2
734 762 3
735 736 2
735 763 1
736 737 4
736 764 3
737 738 2
737 765 5
738 739 5
738 766 3
739 740 2
739 767 1
740 741 4
740 768 4
741 742 4
741 769 2
742 743 2
742 770 1
743 744 5
743 771 5
744 745 1
744 772 2
745 746 2
745 773 4
746 747 3
746 774 2
747 748 2
747 775 2
748 749 2
748 776 3
749 750 4
749 777 1
750 751 3
750 778 4
751 752 2
751 779 2
752 753 5
752 780 5
753 754 4
753 781 5
754 755 5
754 782 4
755 756 4
755 783 4
756 784 2
757 758 5
758 759 1
759 760 5
760 761 3
761 762 4
762 763 2
763 764 5
764 765 5
765 766 4
766 767 3
767 768 2
768 769 5
769 770 4
770 771 3
771 772 5
772 773 3
773 774 3
774 775 2
775 776 1
776 777 5
777 778 2
778 779 2
779 780 3
780 781 1
781 782 5
782 783 5
783 784 2
1 757 4
2 758 1
3 759 2
4 760 3
5 761 3
6 762 4
7 763 5
8 764 5
9 765 1
10 766 1
11 767 1
12 768 1
13 769 3
14 770 5
15 771 5
16 772 3
17 773 5
18 774 3
19 775 1
20 776 4
21 777 3
22 778 1
23 779 1
24 780 1
25 781 2
26 782 4
27 783 5
28 784 3
1 28 1
29 56 3
57 84 5
85 112 1
113 140 4
141 168 5
169 196 1
197 224 3
225 252 3
253 280 5
281 308 4
309 336 5
337 364 1
365 392 5
393 420 5
421 448 4
449 476 2
477 504 5
505 532 4
533 560 2
561 588 3
589 616 4
617 644 5
645 672 4
673 700 1
701 728 3
729 756 3
757 784 3
